NAME : tsp_58_sol.txt
COMMENT : OR-Tools Guided Local Search
TYPE : TOUR
DIMENSION : 102
COST : 8029
STATUS : ROUTING_SUCCESS
GAP : 0.00% (Reference Solution)
TOUR_SECTION
1
94
41
14
83
86
100
19
67
36
2
73
43
50
74
57
35
17
38
48
15
21
88
37
6
34
8
64
60
85
40
80
82
11
47
78
71
25
30
26
18
12
51
89
84
3
65
54
56
61
63
24
72
16
42
49
79
59
29
22
7
98
27
55
58
33
31
44
96
70
23
4
87
81
66
99
92
20
93
52
75
91
10
46
95
77
76
90
5
102
32
62
45
69
9
97
28
13
53
101
68
39
-1
